p cnf 7230 16
-5257 -5281 5528 0
-5265 -5267 -5533 0
5265 -5534 0
5535 5536 0
5269 -5536 0
-5269 -5535 0
5533 5534 0
5531 5532 0
5261 -5532 0
-5261 -5531 0
5529 5530 0
5259 -5530 0
-5259 -5529 0
5267 -5534 0
-5527 -5528 0
5527 5528 0
